17	3
5	8	7	
0	0	0	0	15	2	3	4	5	6	7	8	9	10	11	12	13	14	15	16	
4	3	3	1	1	11	
106	3	3	2	1	17	
313	2	1	2	1	17	
4	2	2	2	1	17	
346	3	1	2	1	17	
3	2	3	1	1	14	
5	2	1	1	1	17	
5	3	1	2	1	17	
55	3	3	1	1	17	
283	5	2	1	1	14	
255	2	3	1	1	15	
4	2	3	2	1	17	
3	4	3	1	1	15	
6	5	2	2	1	17	
222	4	1	1	1	17	
0	0	0	0	0	